letting n =  10
letting blocks =  [[1, 1], [1, 3], [1, 4], [1, 6], [1, 7], [1, 10], [2, 1], [2, 2], [2, 3], [2, 5], [2, 8], [2, 9], [3, 2], [3, 4], [3, 5], [3, 7], [3, 8], [3, 10], [4, 1], [4, 5], [4, 7], [4, 8], [4, 9], [5, 1], [5, 2], [5, 3], [5, 4], [5, 5], [5, 10], [6, 3], [6, 5], [6, 6], [6, 7], [6, 9], [6, 10], [7, 3], [7, 4], [7, 6], [7, 7], [7, 8], [7, 9], [8, 2], [8, 4], [8, 6], [8, 8], [8, 10], [9, 1], [9, 2], [9, 6], [9, 7], [9, 9], [9, 10], [10, 1], [10, 3], [10, 4], [10, 5], [10, 6], [10, 9]]
